151 129 150 167 160 2 147 137 84 116 109 38 142 56 73 126 176 104 59 184 3 198 45 8 93 133 105 48 95 13 100 181 82 9 10 46 51 42 187 103 11 94 108 134 74 78 65 140 159 192 130 7 1 183 102 110 24 174 149 190 37 193 178 120 127 111 156 21 128 52 107 98 177 170 138 58 28 101 20 171 64 17 23 86 199 185 195 30 90 91 196 87 161 71 92 16 34 18 173 115 188 26 146 164 152 69 125 97 117 4 29 122 163 49 80 44 68 131 70 22 5 57 55 79 132 197 83 139 53 6 106 67 50 141 0 145 63 19 85 33 148 166 66 121 54 12 136 189 43 172 32 99 60 39 81 175 114 144 119 75 123 76 165 77 41 194 72 27 153 180 169 89 154 31 62 88 186 182 61 36 168 179 25 14 112 96 157 15 135 113 35 191 162 143 47 158 124 155 40 118  
151 129 150 167 160 2 147 137 84 116 109 38 142 56 73 126 176 104 59 184 3 198 45 8 93 133 105 48 95 13 100 181 82 9 10 46 51 42 187 103 11 94 108 134 74 78 65 140 159 192 130 7 1 183 102 71 28 110 24 174 37 90 177 190 149 193 178 120 127 111 156 52 128 170 107 98 92 132 21 138 58 161 101 20 171 64 87 17 23 86 199 185 195 91 196 16 34 18 173 115 188 26 146 164 152 69 125 97 117 4 29 122 163 49 80 44 68 131 70 22 5 57 55 79 30 197 83 139 53 6 106 67 50 141 0 145 63 27 85 33 148 166 66 121 54 153 136 189 43 172 32 99 60 39 81 175 114 72 119 75 123 76 165 77 41 194 144 180 169 89 154 31 62 88 186 182 12 96 19 113 135 124 168 179 25 14 112 61 36 157 15 158 143 155 35 191 162 47 118 40  
151 129 150 167 160 2 147 137 84 116 109 38 142 56 73 126 176 104 59 184 3 198 45 8 93 105 48 95 13 100 69 82 9 10 46 51 42 94 103 130 11 187 108 134 74 78 65 140 159 192 133 181 7 1 183 102 71 28 110 24 174 37 190 149 193 178 120 127 111 156 21 128 52 107 98 177 170 138 58 101 20 171 64 17 23 86 199 185 195 30 90 27 196 87 161 92 16 34 18 173 115 188 162 146 164 152 125 97 117 4 29 122 163 49 80 44 68 131 70 22 5 57 55 79 132 197 83 139 53 6 106 67 50 141 0 145 63 19 85 33 148 166 66 121 54 12 136 189 43 172 32 99 60 39 81 175 114 144 119 75 123 76 165 77 41 194 72 180 169 89 154 31 62 88 186 182 153 61 36 168 179 25 14 91 112 96 157 15 135 113 35 191 26 143 47 158 124 155 40 118  
151 129 150 167 160 2 147 137 84 116 109 38 142 56 73 126 176 104 59 184 3 198 45 8 93 130 105 48 95 13 100 181 82 9 10 46 51 42 187 103 11 94 108 134 74 78 65 140 159 192 133 7 1 183 102 71 28 110 24 174 86 190 149 193 120 127 111 156 52 128 21 107 186 132 83 81 138 58 161 101 20 171 64 87 17 23 178 152 98 177 170 139 18 6 37 69 195 199 185 91 196 173 115 188 26 146 164 117 197 67 4 29 122 163 49 80 44 68 131 70 22 5 57 55 79 30 97 106 16 90 50 34 141 0 145 63 19 85 66 33 121 54 153 148 136 189 166 172 43 32 99 60 39 53 175 114 144 119 75 123 76 165 77 41 194 72 31 169 89 154 180 62 88 125 92 182 12 61 36 168 179 25 14 27 112 96 157 15 135 113 35 191 162 143 47 158 124 155 40 118  
151 129 150 167 160 2 147 137 84 109 38 142 56 73 126 176 104 59 184 198 45 8 93 105 48 95 13 100 69 82 9 10 46 51 42 187 103 11 94 108 134 74 78 140 159 192 133 181 196 3 130 7 1 183 102 72 28 110 24 174 37 190 127 193 178 120 149 111 156 52 128 21 152 107 98 177 186 132 170 83 139 81 138 58 161 101 20 171 64 18 148 23 86 199 185 195 125 16 173 115 188 26 146 164 29 122 163 30 49 4 80 44 68 131 70 22 5 57 55 79 17 117 197 90 106 116 91 65 87 97 67 50 34 141 0 145 166 19 85 66 33 155 54 153 136 189 43 32 113 175 114 60 119 75 172 135 96 92 144 36 168 71 6 63 99 39 53 123 76 15 77 41 194 31 169 89 88 157 121 165 154 180 62 182 12 61 179 14 27 25 112 35 191 162 143 47 158 124 118 40  
151 129 150 167 160 2 147 137 84 109 38 142 56 73 126 176 104 59 184 198 45 8 93 105 48 95 13 100 69 82 9 10 46 42 187 103 11 94 108 134 74 78 192 133 181 196 3 140 159 51 130 7 1 183 102 72 28 110 24 174 37 190 127 193 178 120 149 111 156 52 128 21 152 107 98 177 186 132 170 83 139 81 138 58 161 124 26 171 64 18 148 23 86 199 185 195 125 16 173 115 188 20 146 164 29 122 163 30 49 4 80 44 68 131 70 22 5 57 55 79 17 117 197 90 106 91 116 65 87 97 67 50 34 141 0 145 166 19 85 66 33 155 54 153 136 189 43 32 113 175 114 60 119 75 172 135 96 92 144 36 168 71 6 63 99 39 53 123 76 165 77 41 194 31 169 89 154 180 62 88 182 12 61 25 179 14 27 112 157 15 35 191 121 162 143 47 158 101 40 118  
151 129 150 167 160 2 147 137 84 116 109 38 142 56 73 126 176 104 59 184 3 198 45 8 93 105 48 95 133 13 100 181 82 9 10 46 51 42 187 103 11 23 108 134 74 78 65 140 159 192 130 7 190 183 102 177 28 110 24 174 1 149 193 178 120 127 111 156 52 128 170 107 98 132 21 33 58 161 101 20 171 64 87 17 94 86 199 185 195 91 196 37 71 16 34 18 173 115 188 26 146 164 152 69 97 117 90 30 49 4 80 44 68 131 70 22 5 57 55 79 29 122 163 197 83 139 53 6 106 67 50 141 0 145 63 19 85 66 138 121 54 153 148 136 189 166 172 43 32 99 60 39 81 175 114 144 119 75 123 76 165 77 41 194 72 31 169 89 154 180 186 62 88 125 92 182 12 61 36 168 179 25 14 27 112 96 157 15 135 113 35 191 162 143 47 158 124 155 40 118  
151 129 150 167 160 2 147 137 84 116 109 38 142 56 73 126 176 104 59 184 3 198 45 8 93 133 105 48 95 13 100 181 82 9 10 46 51 42 187 103 11 94 108 134 74 78 65 140 159 192 130 7 1 183 102 110 24 174 37 190 149 193 178 120 127 111 156 21 191 52 107 98 177 170 138 58 28 101 20 171 64 17 23 86 199 185 195 30 90 91 196 87 161 71 92 16 34 18 173 115 188 26 146 164 152 69 125 97 117 4 29 122 163 49 80 44 68 131 70 22 5 85 55 79 132 197 83 139 53 6 106 67 50 141 0 145 63 19 57 33 148 166 66 121 54 12 136 189 43 172 32 99 60 39 81 175 114 144 119 75 123 76 165 77 41 194 72 180 169 89 154 31 62 88 186 182 153 61 36 168 179 25 14 27 112 96 157 15 135 113 35 128 162 143 47 158 124 155 40 118  
151 129 150 167 160 2 147 137 84 109 38 142 56 73 126 176 104 59 184 198 45 8 93 105 48 95 13 100 69 82 9 10 46 51 42 187 103 11 94 108 134 74 78 140 159 192 133 181 196 3 130 7 1 183 102 72 28 110 24 174 37 190 111 193 178 120 149 127 156 52 128 21 152 107 98 177 186 132 170 83 139 81 138 58 161 101 26 171 64 18 148 23 86 199 185 195 125 16 173 115 188 20 146 164 29 122 163 30 49 4 80 44 68 131 70 22 5 57 55 79 145 117 197 90 106 91 116 65 87 67 97 50 34 141 0 71 17 53 6 63 19 85 66 33 121 54 153 136 189 166 172 43 32 99 60 39 175 114 144 119 75 123 76 165 77 41 194 31 169 89 135 180 62 88 92 182 12 61 25 168 179 36 14 27 112 96 157 15 154 113 35 191 162 143 47 158 124 155 40 118  
151 129 150 167 160 2 147 137 84 116 109 38 142 56 73 126 176 104 59 184 3 198 45 8 93 133 105 48 95 13 100 181 82 9 10 46 51 42 187 103 11 94 108 134 20 78 65 140 159 192 130 7 1 183 102 71 28 110 24 174 37 90 177 190 149 193 178 120 127 111 156 52 128 170 107 98 92 132 21 138 58 161 101 74 171 64 87 17 23 86 199 185 195 91 196 16 34 18 173 115 188 152 146 164 26 69 125 97 117 4 29 122 163 49 80 44 68 131 70 22 5 57 55 79 30 197 83 139 53 6 106 67 50 141 0 145 63 27 85 33 148 166 66 121 54 153 136 189 43 172 32 99 60 39 81 175 114 72 119 75 123 76 165 77 41 194 144 180 169 89 154 31 62 88 186 182 12 96 19 113 135 124 168 179 25 14 112 61 36 157 15 158 143 155 35 191 162 47 40 118  
151 129 150 167 160 2 147 137 84 109 38 142 56 73 126 176 104 59 184 198 45 8 93 105 48 95 13 100 69 82 9 10 46 51 42 187 103 11 94 108 134 74 78 140 159 192 133 181 196 3 130 7 1 183 102 72 28 110 24 174 37 190 127 193 180 120 149 111 156 52 128 21 152 107 98 177 186 132 170 83 139 81 138 58 161 101 20 171 64 18 148 23 86 199 185 195 125 16 173 115 188 26 146 164 29 122 163 30 49 4 80 44 68 131 70 22 5 57 55 79 17 117 197 90 106 116 136 65 87 67 97 50 34 141 0 145 166 19 85 66 33 121 54 153 91 189 71 178 92 53 6 63 12 43 172 32 99 60 39 175 114 144 119 75 123 76 165 77 41 194 27 169 89 154 31 62 88 182 61 36 168 179 25 14 112 96 157 15 135 113 35 191 162 143 47 158 124 155 40 118  
151 129 150 167 160 2 147 137 84 109 38 142 56 73 126 176 104 59 184 3 198 45 8 93 105 48 95 13 100 69 82 9 10 46 51 42 187 103 130 11 94 108 134 74 78 140 159 192 133 181 196 1 7 183 102 72 163 110 24 174 37 190 127 193 178 120 149 111 156 52 128 21 152 107 98 177 186 132 170 83 139 81 138 58 161 101 20 171 64 18 148 23 86 199 185 195 125 16 173 115 188 26 146 164 29 122 144 30 49 4 80 44 68 131 70 22 5 57 55 79 17 117 197 90 106 91 116 65 87 97 67 50 34 141 0 145 166 19 85 66 33 121 54 153 136 189 43 32 113 175 114 60 119 75 172 6 96 92 36 28 168 71 135 63 99 39 53 123 157 76 165 77 41 194 31 169 89 154 180 62 88 182 12 61 179 14 27 25 112 15 35 191 162 143 47 158 124 155 40 118  
151 129 150 167 160 2 147 137 84 109 38 142 56 73 126 176 104 59 184 3 198 45 8 93 105 48 95 13 100 69 82 9 10 46 51 42 187 103 130 11 94 108 134 74 78 140 159 192 133 181 196 1 7 183 102 72 110 24 174 37 190 149 193 178 120 127 111 156 52 128 21 152 107 98 177 186 132 170 83 139 81 138 58 161 101 171 20 28 64 96 23 86 199 185 195 125 16 173 115 188 26 148 146 164 29 122 163 30 49 4 80 44 68 131 70 22 5 57 55 79 17 117 197 90 106 91 116 65 87 67 97 27 34 141 0 145 166 19 85 66 33 121 54 153 136 189 36 32 43 113 175 114 144 119 75 172 135 63 6 124 194 71 31 169 89 123 154 180 62 39 168 179 25 77 14 50 112 41 92 99 165 88 182 60 18 76 12 53 157 15 158 61 35 191 162 143 47 155 40 118  
